5 5
2 98 4 39 3 71 1 54 0 99
3 94 4 76 0 35 1 11 2 61
3 44 0 68 4 25 1 48 2 32
4 84 0 95 3 4 1 38 2 63
2 47 1 1 0 3 3 86 4 62
-1
0 2 4 5
0 1 2 3 5
0 1 2 5
0 2 3 5
0 1 3 5
-2
161 339 452
97 190 206 381
55 178 255
279 280 375
53 62 248

404 6
11 16 22 7 4
21 13 18 3 8
0 20 14 19 9
10 5 2 17 23
15 1 12 6 24
